68
150
105	3
104	3
103	2
101	3
100	3
99	4
98	2
97	1
96	2
95	6
92	4
91	2
90	1
88	4
87	2
86	1
85	1
84	2
83	4
82	2
81	3
80	1
79	3
78	2
77	4
76	3
75	1
74	2
73	3
72	5
71	4
70	3
69	4
68	1
67	3
66	3
65	6
64	5
63	5
62	3
61	3
60	1
59	5
57	2
56	3
55	5
54	2
53	2
52	3
51	2
50	3
48	2
46	1
45	1
43	6
42	3
41	5
40	3
39	2
38	3
37	4
36	2
35	3
34	2
33	4
32	2
31	6
30	4
